Maximize
	+ 2 x1 + 4 x2 + 4 x3 
Maximize
	+ 1 x2 - 2 x3 + 2 x4 
Maximize
	+ 2 x1 - 1 x2 + 3 x3 
Subject To
	+ 4 x1 + 5 x2 + 6 x3 + 3 x4 <= 6
	- 3 x1 + 6 x2 + 5 x4 <= 2
	+ 5 x1 - 3 x4 <= 2
	+ 4 x1 + 5 x2 + 4 x4 <= 9
	+ 6 x1 + 6 x2 <= 9
Bounds
	0 <= x1 <= 4
	0 <= x2 <= 4
	0 <= x3 <= 4
	0 <= x4 <= 4
Integers
	x1 x2 x3 x4 
End